p td 40 60
1 34
1 15
1 38
34 21
34 0
24 30
24 26
24 5
30 37
30 17
8 23
8 39
8 27
23 18
23 17
12 27
12 20
12 33
27 22
11 35
11 29
11 25
35 36
35 7
26 10
26 21
15 28
15 16
5 19
5 10
19 18
19 33
9 29
9 18
9 28
29 4
37 7
37 38
10 2
0 36
0 25
36 2
33 32
6 14
6 4
6 31
14 13
14 32
32 21
20 39
20 4
22 17
22 7
13 16
13 3
16 3
28 25
39 31
3 2
31 38
